4 
5  08 38 53 
6  08 15 23 31 38 46 53 
7  01 08 16 23 31 38 46 53 
8  01 08 16 23 31 38 46 53 
9  01 08 16 23 31 38 46 53 
10  01 08 16 23 31 38 46 53 
11  01 08 16 23 31 38 46 53 
12  01 08 16 23 31 38 46 53 
13  01 08 16 23 31 38 46 53 
14  01 08 16 23 31 38 46 53 
15  01 08 16 23 31 38 46 53 
16  01 08 16 23 31 38 46 53 
17  01 08 16 23 31 38 46 53 
18  01 08 16 23 31 38 46 53 
19  01 08 16 23 31 38 46 53 
20  01 08 16 23 34 49 
21  04 19 34 49 
22  03 18 29 44 59 
23  14 29 
0 
